%chk=check.chk
%mem=1500mb
%nproc=32
# opt freq um062x/cc-pvtz

InChI=1S_slash_C13H14_slash_c1-2-7-13-11(5-1)8-10-4-3-6-12(13)9-10_slash_h1-7,11-13H,8-9H2

0   1
C        -2.6696   -0.1963    1.2780
C        -2.0286   -1.4647    0.9040
C        -1.0811   -1.5144   -0.0341
C        -0.6987   -0.2875   -0.8405
C        -0.9865    1.0603   -0.0519
C        -2.2129    0.9715    0.8233
C         0.2175    1.6135    0.7752
C         1.5170    1.1438    0.1784
C         2.1927    0.2056    0.8731
C         2.3540   -1.1342    0.2548
C         1.6575   -1.4310   -0.8593
C         0.7475   -0.3752   -1.4908
C         1.4755    0.9629   -1.3172
H        -3.5161   -0.2129    1.9524
H        -2.3448   -2.3773    1.3930
H        -0.6879   -2.4849   -0.3099
H        -1.4132   -0.2848   -1.6943
H        -1.2211    1.8257   -0.8256
H        -2.6929    1.8873    1.1460
H         0.1990    2.7246    0.7714
H         0.1287    1.2900    1.8381
H         2.2508    0.2580    1.9534
H         2.9639   -1.8874    0.7360
H         1.7521   -2.4086   -1.3146
H         0.6532   -0.5995   -2.5759
H         2.5049    0.9205   -1.7398
H         0.9390    1.7951   -1.8233