%chk=check.chk
%mem=1500mb
%nproc=32
# opt freq um062x/cc-pvtz

InChI=1S_slash_C10H12_slash_c1-2-9-7-4-5-8(6-7)10(9)3-1_slash_h1-2,4-5,7-10H,3,6H2

0   1
C         2.1431    0.5667    0.4939
C         1.4685    1.2283   -0.4361
C         0.3995    0.3900   -1.0564
C        -1.0537    0.8460   -0.7559
C        -1.1855    1.1475    0.7169
C        -1.1070   -0.0165    1.3601
C        -0.9259   -1.0893    0.3138
C        -1.7773   -0.4898   -0.7933
C         0.4896   -0.9633   -0.3169
C         1.6649   -0.8359    0.6715
H         2.9620    1.0019    1.0571
H         1.6706    2.2597   -0.7055
H         0.5737    0.2725   -2.1488
H        -1.4572    1.6281   -1.4331
H        -1.3897    2.1103    1.1727
H        -1.2380   -0.1592    2.4273
H        -1.2128   -2.1122    0.6367
H        -1.6781   -1.0217   -1.7687
H        -2.8575   -0.4116   -0.5229
H         0.6690   -1.7954   -1.0351
H         1.3620   -1.0164    1.7246
H         2.4799   -1.5395    0.3981

